Optimal - objective value 7.73333400
      0 r_0                         0                       1
      1 r_1                         0                       1
      2 r_2                         0                       1
      3 r_3                         0                       1
      4 r_4                         0                       1
      5 r_5                         0                       1
      6 r_6                         0                       1
      7 r_7                         1                       1
      8 r_8                         0                       1
      9 r_9                         0                0.966667
     10 r_10                        0                0.966667
     11 r_11                        1                0.966667
     12 r_12                        0                0.966667
     13 r_13                        0                0.966667
     14 r_14                        0                0.933333
     15 r_15                        1                0.933333
     16 b_0                         0                       1
     17 b_1                         0                       1
     18 b_2                         0                       1
     19 b_3                         0                       1
     20 b_4                         0                       1
     21 b_5                         0                       1
     22 b_6                         0                       1
     23 b_7                         0                       1
     24 b_8                         1                       1
     25 b_9                         1                0.966667
     26 b_10                        1                0.966667
     27 b_11                        0                0.966667
     28 b_12                        0                0.966667
     29 b_13                        1                0.966667
     30 b_14                        1                0.933333
     31 b_15                        0                0.933333
